Route #1: 53 58 73 21 25 55 54 24 29 79 78 34 35 65 71 9 51 81 33 50 1 69 76 77 3 68 80 12 26 40
Route #2: 13 94 96 99 59 92 95 97 87 42 43 15 57 2 41 22 74 72 75 56 23 67 39 4
Route #3: 5 84 17 45 46 8 83 60 82 48 47 36 49 64 19 11 63 90 32 66 20 30 70 10 62 7 88 31
Route #4: 28 27 52 18 61 16 86 38 14 44 91 100 37 98 85 93 6 89
Cost 772
